5
201 333 29  192
311 283 298  338
310 243 17  813
193 358 335  322
167 381 22  619
10
24 237 272  425 289
231 239 177  294 306
23 423 316  335 269
200 59 286  308 272
76 153 293  208 498
91 258 359  172 245
258 339 21  308 64
3 459 148  376 428
459 216 289  305 33
357 223 71  238 440
